c instance by G2
c solution = 0001111100111101100
c Known solution cost is 1082 
p cnf 19 30
w 48 42 77 11 42 85 62 78 78 23 47 89 32 33 83 93 94 38 27
16 -3 -12 0
6 -7 -19 0
5 -11 -12 0
3 18 6 0
19 5 -4 0
10 -1 -8 0
-4 8 13 0
14 -13 18 0
10 -4 -1 0
2 4 16 0
4 -7 18 0
17 -8 -6 0
-6 -11 12 0
-17 -15 18 0
-5 12 -13 0
2 -18 -5 0
-2 -1 3 0
-13 -5 8 0
14 -6 1 0
-8 -19 -17 0
3 -19 -12 0
-5 19 16 0
-2 -7 3 0
-16 2 7 0
17 2 -4 0
-12 -4 -9 0
-3 -14 -6 0
-10 -12 2 0
-7 11 -8 0
18 13 -4 0
